(set-info :smt-lib-version 2.6)
(set-logic QF_UFLIA)
(set-info :source | MathSat group |)
(set-info :category "crafted")
(set-info :status unsat)
(declare-fun hash_1 (Int) Int)
(declare-fun hash_2 (Int) Int)
(declare-fun hash_3 (Int) Int)
(declare-fun hash_4 (Int) Int)
(declare-fun hash_5 (Int) Int)
(declare-fun hash_6 (Int) Int)
(declare-fun hash_7 (Int) Int)
(declare-fun x1 () Int)
(declare-fun x2 () Int)
(declare-fun x3 () Int)
(declare-fun x4 () Int)
(assert (let ((?v_0 (hash_1 x1)) (?v_1 (hash_1 x2)) (?v_2 (hash_1 x3)) (?v_3 (hash_1 x4)) (?v_4 (hash_2 x1)) (?v_5 (hash_2 x2)) (?v_6 (hash_2 x3)) (?v_7 (hash_2 x4)) (?v_8 (hash_3 x1)) (?v_9 (hash_3 x2)) (?v_10 (hash_3 x3)) (?v_11 (hash_3 x4)) (?v_12 (hash_4 x1)) (?v_13 (hash_4 x2)) (?v_14 (hash_4 x3)) (?v_15 (hash_4 x4)) (?v_16 (hash_5 x1)) (?v_17 (hash_5 x2)) (?v_18 (hash_5 x3)) (?v_19 (hash_5 x4)) (?v_20 (hash_6 x1)) (?v_21 (hash_6 x2)) (?v_22 (hash_6 x3)) (?v_23 (hash_6 x4)) (?v_24 (hash_7 x1)) (?v_25 (hash_7 x2)) (?v_26 (hash_7 x3)) (?v_27 (hash_7 x4))) (let ((?v_28 (= ?v_0 ?v_4))) (and (and (and (and (and (and (and (and (and (and (and (and (and (and (and (and (and (and (and (and (and (and (and (and (and (and (and (and (and (and (and (and (and (and (and (and (and (and (and (and (and (and (and (and (and (and (and (and (and (and (and (and (and (and (and (and (and (and (and (and (and (and (and (and (and (and (and (and (and (and (and (and (and (and (and (and (and (and (and (and (and (and (and (and (distinct ?v_0 ?v_1) (distinct ?v_0 ?v_2)) (distinct ?v_0 ?v_3)) (distinct ?v_1 ?v_2)) (distinct ?v_1 ?v_3)) (distinct ?v_2 ?v_3)) (distinct ?v_4 ?v_5)) (distinct ?v_4 ?v_6)) (distinct ?v_4 ?v_7)) (distinct ?v_5 ?v_6)) (distinct ?v_5 ?v_7)) (distinct ?v_6 ?v_7)) (distinct ?v_8 ?v_9)) (distinct ?v_8 ?v_10)) (distinct ?v_8 ?v_11)) (distinct ?v_9 ?v_10)) (distinct ?v_9 ?v_11)) (distinct ?v_10 ?v_11)) (distinct ?v_12 ?v_13)) (distinct ?v_12 ?v_14)) (distinct ?v_12 ?v_15)) (distinct ?v_13 ?v_14)) (distinct ?v_13 ?v_15)) (distinct ?v_14 ?v_15)) (distinct ?v_16 ?v_17)) (distinct ?v_16 ?v_18)) (distinct ?v_16 ?v_19)) (distinct ?v_17 ?v_18)) (distinct ?v_17 ?v_19)) (distinct ?v_18 ?v_19)) (distinct ?v_20 ?v_21)) (distinct ?v_20 ?v_22)) (distinct ?v_20 ?v_23)) (distinct ?v_21 ?v_22)) (distinct ?v_21 ?v_23)) (distinct ?v_22 ?v_23)) (distinct ?v_24 ?v_25)) (distinct ?v_24 ?v_26)) (distinct ?v_24 ?v_27)) (distinct ?v_25 ?v_26)) (distinct ?v_25 ?v_27)) (distinct ?v_26 ?v_27)) (or (or (or (= ?v_0 x1) (= ?v_0 x2)) (= ?v_0 x3)) (= ?v_0 x4))) (or (or (or (= ?v_1 x1) (= ?v_1 x2)) (= ?v_1 x3)) (= ?v_1 x4))) (or (or (or (= ?v_2 x1) (= ?v_2 x2)) (= ?v_2 x3)) (= ?v_2 x4))) (or (or (or (= ?v_3 x1) (= ?v_3 x2)) (= ?v_3 x3)) (= ?v_3 x4))) (or (or (or (= ?v_4 x1) (= ?v_4 x2)) (= ?v_4 x3)) (= ?v_4 x4))) (or (or (or (= ?v_5 x1) (= ?v_5 x2)) (= ?v_5 x3)) (= ?v_5 x4))) (or (or (or (= ?v_6 x1) (= ?v_6 x2)) (= ?v_6 x3)) (= ?v_6 x4))) (or (or (or (= ?v_7 x1) (= ?v_7 x2)) (= ?v_7 x3)) (= ?v_7 x4))) (or (or (or (= ?v_8 x1) (= ?v_8 x2)) (= ?v_8 x3)) (= ?v_8 x4))) (or (or (or (= ?v_9 x1) (= ?v_9 x2)) (= ?v_9 x3)) (= ?v_9 x4))) (or (or (or (= ?v_10 x1) (= ?v_10 x2)) (= ?v_10 x3)) (= ?v_10 x4))) (or (or (or (= ?v_11 x1) (= ?v_11 x2)) (= ?v_11 x3)) (= ?v_11 x4))) (or (or (or (= ?v_12 x1) (= ?v_12 x2)) (= ?v_12 x3)) (= ?v_12 x4))) (or (or (or (= ?v_13 x1) (= ?v_13 x2)) (= ?v_13 x3)) (= ?v_13 x4))) (or (or (or (= ?v_14 x1) (= ?v_14 x2)) (= ?v_14 x3)) (= ?v_14 x4))) (or (or (or (= ?v_15 x1) (= ?v_15 x2)) (= ?v_15 x3)) (= ?v_15 x4))) (or (or (or (= ?v_16 x1) (= ?v_16 x2)) (= ?v_16 x3)) (= ?v_16 x4))) (or (or (or (= ?v_17 x1) (= ?v_17 x2)) (= ?v_17 x3)) (= ?v_17 x4))) (or (or (or (= ?v_18 x1) (= ?v_18 x2)) (= ?v_18 x3)) (= ?v_18 x4))) (or (or (or (= ?v_19 x1) (= ?v_19 x2)) (= ?v_19 x3)) (= ?v_19 x4))) (or (or (or (= ?v_20 x1) (= ?v_20 x2)) (= ?v_20 x3)) (= ?v_20 x4))) (or (or (or (= ?v_21 x1) (= ?v_21 x2)) (= ?v_21 x3)) (= ?v_21 x4))) (or (or (or (= ?v_22 x1) (= ?v_22 x2)) (= ?v_22 x3)) (= ?v_22 x4))) (or (or (or (= ?v_23 x1) (= ?v_23 x2)) (= ?v_23 x3)) (= ?v_23 x4))) (or (or (or (= ?v_24 x1) (= ?v_24 x2)) (= ?v_24 x3)) (= ?v_24 x4))) (or (or (or (= ?v_25 x1) (= ?v_25 x2)) (= ?v_25 x3)) (= ?v_25 x4))) (or (or (or (= ?v_26 x1) (= ?v_26 x2)) (= ?v_26 x3)) (= ?v_26 x4))) (or (or (or (= ?v_27 x1) (= ?v_27 x2)) (= ?v_27 x3)) (= ?v_27 x4))) (distinct x1 x2)) (distinct x1 x3)) (distinct x1 x4)) (distinct x2 x3)) (distinct x2 x4)) (distinct x3 x4)) (<= 0 x1)) (< x1 5)) (<= 0 x2)) (< x2 5)) (<= 0 x3)) (< x3 5)) (<= 0 x4)) (< x4 5)) (distinct (ite ?v_28 ?v_4 (+ ?v_0 ?v_0)) (ite ?v_28 ?v_4 (* 2 ?v_0)))))))
(check-sat)
(exit)
